13236.0
1 0 1 0 0 1 0 1 1 0 0 1 0 0 1 1 0 1 0 0 1 0 0 0 1 1 0 0 0 0 
20 11 20 2 20 5 2 24 2 17 5 8 8 20 7 14 17 17 25 11 2 7 5 17 5 8 17 24 5 24 5 25 2 25 20 8 24 15 0 14 0 8 15 2 24 14 7 20 11 8 25 14 14 5 8 20 17 11 0 14 0 5 20 11 11 11 24 0 25 5 14 20 11 17 24 8 24 20 14 24 20 7 8 17 17 17 17 0 20 5 2 24 17 11 7 24 2 7 25 2 8 17 17 25 2 25 17 11 8 8 14 2 2 11 11 25 24 15 24 24 5 8 25 20 8 7 5 15 0 25 0 11 24 25 14 14 7 5 20 17 0 14 20 14 8 25 25 5 2 5 